30 60
28
9 24 7 36
9 8 7 28
9 11 4 0
9 17 4 11
4 24 0 13
4 8 0 0
1 6 0 54
1 5 3 8
4 17 0 37
3 6 1 54
3 5 0 8
12 5 18 50
12 13 18 23
14 14 16 36
2 14 16 22
2 2 16 50
8 3 16 57
8 9 22 0
12 14 18 9
12 2 18 55
6 3 24 57
6 9 16 0
2 5 16 52
2 13 16 9
3 18 4 28
3 14 4 46
3 16 13 0
3 12 13 16
